c Resource 2 (Action Points) file for NavMesh graph
p sp 183 378
a 1 12 30
a 1 2 30
a 2 1 50
a 2 5 50
a 3 11 100
a 3 4 100
a 3 9 100
a 3 6 100
a 3 5 100
a 4 3 100
a 5 2 50
a 5 7 50
a 5 3 50
a 6 3 50
a 7 5 30
a 8 52 100
a 8 9 100
a 9 8 150
a 9 3 150
a 10 92 150
a 10 11 150
a 11 10 30
a 11 3 30
a 12 1 150
a 13 14 150
a 14 15 30
a 14 13 30
a 15 14 100
a 15 17 100
a 16 44 50
a 16 17 50
a 17 16 50
a 17 15 50
a 18 56 50
a 18 20 50
a 19 22 50
a 19 20 50
a 20 18 100
a 20 19 100
a 21 22 30
a 22 19 150
a 22 21 150
a 23 26 30
a 24 67 150
a 24 28 150
a 25 42 100
a 25 29 100
a 26 23 150
a 26 40 150
a 27 68 100
a 27 38 100
a 28 24 100
a 28 38 100
a 29 25 100
a 29 37 100
a 30 37 100
a 31 38 50
a 31 39 50
a 32 86 100
a 32 41 100
a 33 39 150
a 34 61 150
a 34 41 150
a 35 41 100
a 36 41 100
a 37 30 30
a 37 41 30
a 37 29 30
a 37 40 30
a 38 28 50
a 38 31 50
a 38 27 50
a 39 33 50
a 39 31 50
a 39 41 50
a 40 26 100
a 40 37 100
a 41 34 100
a 41 36 100
a 41 32 100
a 41 39 100
a 41 35 100
a 41 37 100
a 42 25 50
a 44 16 50
a 44 46 50
a 45 69 100
a 45 48 100
a 46 44 100
a 46 54 100
a 47 49 100
a 47 52 100
a 47 53 100
a 47 48 100
a 47 51 100
a 47 54 100
a 48 45 50
a 48 47 50
a 49 47 100
a 50 60 50
a 50 51 50
a 51 50 100
a 51 47 100
a 52 8 150
a 52 47 150
a 53 47 100
a 54 46 30
a 54 47 30
a 55 95 150
a 55 57 150
a 56 18 30
a 56 59 30
a 57 55 30
a 57 58 30
a 58 57 150
a 58 66 150
a 59 56 100
a 59 66 100
a 60 50 100
a 60 64 100
a 61 34 100
a 61 63 100
a 62 66 100
a 63 61 150
a 63 66 150
a 64 60 50
a 64 66 50
a 65 66 50
a 66 62 30
a 66 63 30
a 66 65 30
a 66 59 30
a 66 64 30
a 66 58 30
a 67 24 30
a 68 27 50
a 69 45 100
a 69 71 100
a 70 88 100
a 70 72 100
a 71 69 50
a 71 74 50
a 72 70 50
a 72 73 50
a 73 72 100
a 73 74 100
a 74 71 50
a 74 75 50
a 74 73 50
a 74 76 50
a 75 74 150
a 76 108 100
a 76 74 100
a 77 96 100
a 77 79 100
a 78 103 50
a 78 80 50
a 79 77 50
a 79 81 50
a 80 78 100
a 80 87 100
a 81 79 100
a 81 87 100
a 82 84 30
a 83 87 30
a 84 82 150
a 84 87 150
a 85 121 30
a 85 87 30
a 86 32 50
a 86 87 50
a 87 86 50
a 87 84 50
a 87 81 50
a 87 85 50
a 87 80 50
a 87 83 50
a 88 70 100
a 88 94 100
a 89 92 100
a 89 94 100
a 90 94 100
a 91 129 50
a 91 93 50
a 92 10 100
a 92 89 100
a 93 91 100
a 93 94 100
a 94 88 30
a 94 90 30
a 94 89 30
a 94 93 30
a 95 55 100
a 95 97 100
a 96 77 100
a 96 98 100
a 97 95 30
a 97 98 30
a 98 96 100
a 98 99 100
a 98 97 100
a 98 100 100
a 99 98 100
a 100 111 50
a 100 98 50
a 101 102 50
a 102 104 100
a 102 101 100
a 103 78 50
a 103 105 50
a 104 102 30
a 104 105 30
a 105 103 150
a 105 104 150
a 106 145 30
a 106 110 30
a 107 108 100
a 107 112 100
a 108 76 50
a 108 107 50
a 109 137 100
a 109 112 100
a 110 106 30
a 110 112 30
a 111 100 100
a 111 112 100
a 112 110 100
a 112 111 100
a 112 107 100
a 112 109 100
a 113 147 30
a 113 115 30
a 114 139 100
a 114 116 100
a 115 113 100
a 115 117 100
a 116 114 50
a 116 123 50
a 117 115 50
a 117 123 50
a 118 122 150
a 119 123 100
a 120 166 100
a 120 123 100
a 121 85 150
a 121 123 150
a 122 118 30
a 122 123 30
a 123 119 100
a 123 120 100
a 123 122 100
a 123 117 100
a 123 121 100
a 123 116 100
a 124 133 100
a 124 125 100
a 125 124 30
a 125 131 30
a 126 129 150
a 126 131 150
a 127 130 100
a 128 173 30
a 128 131 30
a 129 91 30
a 129 126 30
a 130 127 100
a 130 131 100
a 131 125 150
a 131 126 150
a 131 128 150
a 131 130 150
a 132 151 100
a 132 135 100
a 133 124 100
a 133 134 100
a 134 133 30
a 134 135 30
a 135 132 100
a 135 137 100
a 135 134 100
a 135 136 100
a 136 135 100
a 137 109 50
a 137 135 50
a 138 176 150
a 138 140 150
a 139 114 100
a 139 141 100
a 140 138 30
a 140 142 30
a 141 139 30
a 141 143 30
a 142 140 150
a 142 143 150
a 143 141 50
a 143 145 50
a 143 142 50
a 143 144 50
a 144 143 100
a 145 106 100
a 145 143 100
a 146 149 100
a 146 148 100
a 147 113 30
a 147 148 30
a 148 146 150
a 148 147 150
a 149 146 50
a 149 150 50
a 150 149 100
a 151 132 100
a 151 152 100
a 152 151 50
a 152 156 50
a 153 154 100
a 153 156 100
a 154 153 150
a 155 172 100
a 155 158 100
a 156 152 100
a 156 153 100
a 156 158 100
a 156 157 100
a 157 179 30
a 157 156 30
a 158 155 30
a 158 156 30
a 159 165 50
a 160 183 50
a 160 161 50
a 161 160 30
a 161 165 30
a 162 168 30
a 163 169 50
a 163 168 50
a 164 165 150
a 164 168 150
a 165 161 150
a 165 164 150
a 165 159 150
a 166 120 100
a 166 168 100
a 167 168 30
a 168 163 150
a 168 164 150
a 168 167 150
a 168 166 150
a 168 162 150
a 169 178 50
a 169 163 50
a 170 175 100
a 171 175 50
a 172 155 100
a 172 175 100
a 173 128 100
a 173 175 100
a 174 175 100
a 175 173 100
a 175 174 100
a 175 171 100
a 175 172 100
a 175 170 100
a 176 138 100
a 176 180 100
a 177 179 150
a 177 180 150
a 178 169 50
a 178 181 50
a 179 157 150
a 179 177 150
a 180 176 100
a 180 177 100
a 180 181 100
a 180 182 100
a 181 178 100
a 181 180 100
a 182 180 100
a 183 160 100
